(set-info :smt-lib-version 2.6)
(set-logic QF_LIA)
(set-info :source |
show equivalence of the following terms:
(((4 * v2 + 8 * v3) + (16 * v4 + 32 * v5)) + ((64 * v6 + 128 * v7) + (256 * v8 + (1 * v0 + 2 * v1))))

v0 + 2 * (v1 + 2 * (v2 + 2 * (v3 + 2 * (v4 + 2 * (v5 + 2 * (v6 + 2 * (v7 + 2 * (v8))))))))

in arithmetic modulo 2exp16
STATUS: unsat

generated by: Alberto Griggio <alberto.griggio@disi.unitn.it>
|)
(set-info :category "crafted")
(set-info :status unsat)
(declare-fun v0 () Int)
(declare-fun v1 () Int)
(declare-fun v2 () Int)
(declare-fun v3 () Int)
(declare-fun v4 () Int)
(declare-fun v5 () Int)
(declare-fun v6 () Int)
(declare-fun v7 () Int)
(declare-fun v8 () Int)
(declare-fun o_0 () Int)
(declare-fun o_1 () Int)
(declare-fun s_4 () Int)
(declare-fun o_2 () Int)
(declare-fun s_5 () Int)
(declare-fun s_6 () Int)
(declare-fun o_3 () Int)
(declare-fun s_7 () Int)
(declare-fun o_4 () Int)
(declare-fun o_5 () Int)
(declare-fun o_6 () Int)
(declare-fun o_7 () Int)
(declare-fun o_8 () Int)
(declare-fun o_9 () Int)
(declare-fun o_10 () Int)
(declare-fun o_11 () Int)
(declare-fun s_12 () Int)
(declare-fun o_12 () Int)
(declare-fun s_13 () Int)
(declare-fun o_13 () Int)
(declare-fun s_14 () Int)
(declare-fun o_14 () Int)
(declare-fun s_15 () Int)
(declare-fun o_15 () Int)
(assert (let ((?v_0 (* v8 2))) (let ((?v_2 (< ?v_0 65536)) (?v_3 (< ?v_0 131072))) (let ((?v_60 (+ (ite ?v_2 ?v_0 (ite ?v_3 (- ?v_0 65536) (- ?v_0 131072))) v7))) (let ((?v_61 (- ?v_60 (* o_8 65536))) (?v_70 (* v8 256))) (let ((?v_71 (- ?v_70 (* s_7 65536))) (?v_20 (* v1 2))) (let ((?v_84 (+ (ite (< ?v_20 65536) ?v_20 (ite (< ?v_20 131072) (- ?v_20 65536) (- ?v_20 131072))) v0))) (let ((?v_85 (- ?v_84 (* o_0 65536)))) (let ((?v_68 (+ ?v_71 ?v_85))) (let ((?v_69 (- ?v_68 (* o_4 65536))) (?v_74 (* v7 128))) (let ((?v_75 (- ?v_74 (* s_6 65536))) (?v_76 (* v6 64))) (let ((?v_77 (- ?v_76 (* s_5 65536)))) (let ((?v_72 (+ ?v_75 ?v_77))) (let ((?v_73 (- ?v_72 (* o_3 65536)))) (let ((?v_64 (+ ?v_69 ?v_73))) (let ((?v_65 (- ?v_64 (* o_6 65536))) (?v_80 (* v5 32))) (let ((?v_81 (- ?v_80 (* s_4 65536))) (?v_21 (* v4 16))) (let ((?v_78 (+ ?v_81 (ite (< ?v_21 65536) ?v_21 (ite (< ?v_21 131072) (- ?v_21 65536) (ite (< ?v_21 196608) (- ?v_21 131072) (ite (< ?v_21 262144) (- ?v_21 196608) (ite (< ?v_21 327680) (- ?v_21 262144) (ite (< ?v_21 393216) (- ?v_21 327680) (ite (< ?v_21 458752) (- ?v_21 393216) (ite (< ?v_21 524288) (- ?v_21 458752) (ite (< ?v_21 589824) (- ?v_21 524288) (ite (< ?v_21 655360) (- ?v_21 589824) (ite (< ?v_21 720896) (- ?v_21 655360) (ite (< ?v_21 786432) (- ?v_21 720896) (ite (< ?v_21 851968) (- ?v_21 786432) (ite (< ?v_21 917504) (- ?v_21 851968) (ite (< ?v_21 983040) (- ?v_21 917504) (ite (< ?v_21 1048576) (- ?v_21 983040) (- ?v_21 1048576)))))))))))))))))))) (let ((?v_79 (- ?v_78 (* o_2 65536))) (?v_22 (* v3 8)) (?v_23 (* v2 4))) (let ((?v_82 (+ (ite (< ?v_22 65536) ?v_22 (ite (< ?v_22 131072) (- ?v_22 65536) (ite (< ?v_22 196608) (- ?v_22 131072) (ite (< ?v_22 262144) (- ?v_22 196608) (ite (< ?v_22 327680) (- ?v_22 262144) (ite (< ?v_22 393216) (- ?v_22 327680) (ite (< ?v_22 458752) (- ?v_22 393216) (ite (< ?v_22 524288) (- ?v_22 458752) (- ?v_22 524288))))))))) (ite (< ?v_23 65536) ?v_23 (ite (< ?v_23 131072) (- ?v_23 65536) (ite (< ?v_23 196608) (- ?v_23 131072) (ite (< ?v_23 262144) (- ?v_23 196608) (- ?v_23 262144)))))))) (let ((?v_83 (- ?v_82 (* o_1 65536)))) (let ((?v_66 (+ ?v_79 ?v_83))) (let ((?v_67 (- ?v_66 (* o_5 65536)))) (let ((?v_62 (+ ?v_65 ?v_67))) (let ((?v_63 (- ?v_62 (* o_7 65536))) (?v_1 (* 4 v8))) (let ((?v_5 (- (+ (ite ?v_2 ?v_1 (ite ?v_3 (- ?v_1 131072) (- ?v_1 262144))) (* 2 v7)) (* 131072 o_8)))) (let ((?v_7 (< ?v_5 65536)) (?v_9 (< ?v_5 131072))) (let ((?v_58 (+ (ite ?v_7 ?v_5 (ite ?v_9 (- ?v_5 65536) (- ?v_5 131072))) v6))) (let ((?v_59 (- ?v_58 (* o_9 65536))) (?v_4 (* 8 v8))) (let ((?v_6 (- (+ (ite ?v_2 ?v_4 (ite ?v_3 (- ?v_4 262144) (- ?v_4 524288))) (* 4 v7)) (* 262144 o_8)))) (let ((?v_11 (- (+ (ite ?v_7 ?v_6 (ite ?v_9 (- ?v_6 131072) (- ?v_6 262144))) (* 2 v6)) (* 131072 o_9)))) (let ((?v_13 (< ?v_11 65536)) (?v_16 (< ?v_11 131072))) (let ((?v_56 (+ (ite ?v_13 ?v_11 (ite ?v_16 (- ?v_11 65536) (- ?v_11 131072))) v5))) (let ((?v_57 (- ?v_56 (* o_10 65536))) (?v_8 (* 16 v8))) (let ((?v_10 (- (+ (ite ?v_2 ?v_8 (ite ?v_3 (- ?v_8 524288) (- ?v_8 1048576))) (* 8 v7)) (* 524288 o_8)))) (let ((?v_12 (- (+ (ite ?v_7 ?v_10 (ite ?v_9 (- ?v_10 262144) (- ?v_10 524288))) (* 4 v6)) (* 262144 o_9)))) (let ((?v_18 (- (+ (ite ?v_13 ?v_12 (ite ?v_16 (- ?v_12 131072) (- ?v_12 262144))) (* 2 v5)) (* 131072 o_10)))) (let ((?v_28 (< ?v_18 65536)) (?v_32 (< ?v_18 131072))) (let ((?v_54 (+ (ite ?v_28 ?v_18 (ite ?v_32 (- ?v_18 65536) (- ?v_18 131072))) v4))) (let ((?v_55 (- ?v_54 (* o_11 65536))) (?v_46 (* 32 v8))) (let ((?v_47 (- (+ (ite ?v_2 ?v_46 (ite ?v_3 (- ?v_46 1048576) (- ?v_46 2097152))) (* 16 v7)) (* 1048576 o_8)))) (let ((?v_48 (- (+ (ite ?v_7 ?v_47 (ite ?v_9 (- ?v_47 524288) (- ?v_47 1048576))) (* 8 v6)) (* 524288 o_9)))) (let ((?v_49 (- (+ (ite ?v_13 ?v_48 (ite ?v_16 (- ?v_48 262144) (- ?v_48 524288))) (* 4 v5)) (* 262144 o_10)))) (let ((?v_52 (- (+ (ite ?v_28 ?v_49 (ite ?v_32 (- ?v_49 131072) (- ?v_49 262144))) (* 2 v4)) (* 131072 o_11)))) (let ((?v_53 (- ?v_52 (* s_12 65536)))) (let ((?v_50 (+ ?v_53 v3))) (let ((?v_51 (- ?v_50 (* o_12 65536))) (?v_38 (* 64 v8))) (let ((?v_39 (- (+ (ite ?v_2 ?v_38 (ite ?v_3 (- ?v_38 2097152) (- ?v_38 4194304))) (* 32 v7)) (* 2097152 o_8)))) (let ((?v_40 (- (+ (ite ?v_7 ?v_39 (ite ?v_9 (- ?v_39 1048576) (- ?v_39 2097152))) (* 16 v6)) (* 1048576 o_9)))) (let ((?v_41 (- (+ (ite ?v_13 ?v_40 (ite ?v_16 (- ?v_40 524288) (- ?v_40 1048576))) (* 8 v5)) (* 524288 o_10)))) (let ((?v_44 (- (+ (- (- (+ (ite ?v_28 ?v_41 (ite ?v_32 (- ?v_41 262144) (- ?v_41 524288))) (* 4 v4)) (* 262144 o_11)) (* 131072 s_12)) (* 2 v3)) (* 131072 o_12)))) (let ((?v_45 (- ?v_44 (* s_13 65536)))) (let ((?v_42 (+ ?v_45 v2))) (let ((?v_43 (- ?v_42 (* o_13 65536))) (?v_29 (* 128 v8))) (let ((?v_30 (- (+ (ite ?v_2 ?v_29 (ite ?v_3 (- ?v_29 4194304) (- ?v_29 8388608))) (* 64 v7)) (* 4194304 o_8)))) (let ((?v_31 (- (+ (ite ?v_7 ?v_30 (ite ?v_9 (- ?v_30 2097152) (- ?v_30 4194304))) (* 32 v6)) (* 2097152 o_9)))) (let ((?v_33 (- (+ (ite ?v_13 ?v_31 (ite ?v_16 (- ?v_31 1048576) (- ?v_31 2097152))) (* 16 v5)) (* 1048576 o_10)))) (let ((?v_36 (- (+ (- (- (+ (- (- (+ (ite ?v_28 ?v_33 (ite ?v_32 (- ?v_33 524288) (- ?v_33 1048576))) (* 8 v4)) (* 524288 o_11)) (* 262144 s_12)) (* 4 v3)) (* 262144 o_12)) (* 131072 s_13)) (* 2 v2)) (* 131072 o_13)))) (let ((?v_37 (- ?v_36 (* s_14 65536)))) (let ((?v_34 (+ ?v_37 v1))) (let ((?v_35 (- ?v_34 (* o_14 65536))) (?v_14 (* 256 v8))) (let ((?v_15 (- (+ (ite ?v_2 ?v_14 (ite ?v_3 (- ?v_14 8388608) (- ?v_14 16777216))) (* 128 v7)) (* 8388608 o_8)))) (let ((?v_17 (- (+ (ite ?v_7 ?v_15 (ite ?v_9 (- ?v_15 4194304) (- ?v_15 8388608))) (* 64 v6)) (* 4194304 o_9)))) (let ((?v_19 (- (+ (ite ?v_13 ?v_17 (ite ?v_16 (- ?v_17 2097152) (- ?v_17 4194304))) (* 32 v5)) (* 2097152 o_10)))) (let ((?v_26 (- (+ (- (- (+ (- (- (+ (- (- (+ (ite ?v_28 ?v_19 (ite ?v_32 (- ?v_19 1048576) (- ?v_19 2097152))) (* 16 v4)) (* 1048576 o_11)) (* 524288 s_12)) (* 8 v3)) (* 524288 o_12)) (* 262144 s_13)) (* 4 v2)) (* 262144 o_13)) (* 131072 s_14)) (* 2 v1)) (* 131072 o_14)))) (let ((?v_27 (- ?v_26 (* s_15 65536)))) (let ((?v_24 (+ ?v_27 v0))) (let ((?v_25 (- ?v_24 (* o_15 65536)))) (and (not (= ?v_25 ?v_63)) (and (= (> ?v_24 65536) (= o_15 1)) (and (and (< ?v_25 65536) (<= 0 ?v_25)) (and (and (<= o_15 1) (<= 0 o_15)) (and (= (> ?v_26 65536) (>= s_15 1)) (and (and (< ?v_27 65536) (<= 0 ?v_27)) (and (and (< s_15 2) (<= 0 s_15)) (and (= (> ?v_34 65536) (= o_14 1)) (and (and (< ?v_35 65536) (<= 0 ?v_35)) (and (and (<= o_14 1) (<= 0 o_14)) (and (= (> ?v_36 65536) (>= s_14 1)) (and (and (< ?v_37 65536) (<= 0 ?v_37)) (and (and (< s_14 2) (<= 0 s_14)) (and (= (> ?v_42 65536) (= o_13 1)) (and (and (< ?v_43 65536) (<= 0 ?v_43)) (and (and (<= o_13 1) (<= 0 o_13)) (and (= (> ?v_44 65536) (>= s_13 1)) (and (and (< ?v_45 65536) (<= 0 ?v_45)) (and (and (< s_13 2) (<= 0 s_13)) (and (= (> ?v_50 65536) (= o_12 1)) (and (and (< ?v_51 65536) (<= 0 ?v_51)) (and (and (<= o_12 1) (<= 0 o_12)) (and (= (> ?v_52 65536) (>= s_12 1)) (and (and (< ?v_53 65536) (<= 0 ?v_53)) (and (and (< s_12 2) (<= 0 s_12)) (and (= (> ?v_54 65536) (= o_11 1)) (and (and (< ?v_55 65536) (<= 0 ?v_55)) (and (and (<= o_11 1) (<= 0 o_11)) (and (= (> ?v_56 65536) (= o_10 1)) (and (and (< ?v_57 65536) (<= 0 ?v_57)) (and (and (<= o_10 1) (<= 0 o_10)) (and (= (> ?v_58 65536) (= o_9 1)) (and (and (< ?v_59 65536) (<= 0 ?v_59)) (and (and (<= o_9 1) (<= 0 o_9)) (and (= (> ?v_60 65536) (= o_8 1)) (and (and (< ?v_61 65536) (<= 0 ?v_61)) (and (and (<= o_8 1) (<= 0 o_8)) (and (= (> ?v_62 65536) (= o_7 1)) (and (and (< ?v_63 65536) (<= 0 ?v_63)) (and (and (<= o_7 1) (<= 0 o_7)) (and (= (> ?v_64 65536) (= o_6 1)) (and (and (< ?v_65 65536) (<= 0 ?v_65)) (and (and (<= o_6 1) (<= 0 o_6)) (and (= (> ?v_66 65536) (= o_5 1)) (and (and (< ?v_67 65536) (<= 0 ?v_67)) (and (and (<= o_5 1) (<= 0 o_5)) (and (= (> ?v_68 65536) (= o_4 1)) (and (and (< ?v_69 65536) (<= 0 ?v_69)) (and (and (<= o_4 1) (<= 0 o_4)) (and (= (> ?v_70 65536) (>= s_7 1)) (and (and (< ?v_71 65536) (<= 0 ?v_71)) (and (and (< s_7 256) (<= 0 s_7)) (and (= (> ?v_72 65536) (= o_3 1)) (and (and (< ?v_73 65536) (<= 0 ?v_73)) (and (and (<= o_3 1) (<= 0 o_3)) (and (= (> ?v_74 65536) (>= s_6 1)) (and (and (< ?v_75 65536) (<= 0 ?v_75)) (and (and (< s_6 128) (<= 0 s_6)) (and (= (> ?v_76 65536) (>= s_5 1)) (and (and (< ?v_77 65536) (<= 0 ?v_77)) (and (and (< s_5 64) (<= 0 s_5)) (and (= (> ?v_78 65536) (= o_2 1)) (and (and (< ?v_79 65536) (<= 0 ?v_79)) (and (and (<= o_2 1) (<= 0 o_2)) (and (= (> ?v_80 65536) (>= s_4 1)) (and (and (< ?v_81 65536) (<= 0 ?v_81)) (and (and (< s_4 32) (<= 0 s_4)) (and (= (> ?v_82 65536) (= o_1 1)) (and (and (< ?v_83 65536) (<= 0 ?v_83)) (and (and (<= o_1 1) (<= 0 o_1)) (and (= (> ?v_84 65536) (= o_0 1)) (and (and (< ?v_85 65536) (<= 0 ?v_85)) (and (and (<= o_0 1) (<= 0 o_0)) (and (and (< v8 65536) (>= v8 0)) (and (and (< v7 65536) (>= v7 0)) (and (and (< v6 65536) (>= v6 0)) (and (and (< v5 65536) (>= v5 0)) (and (and (< v4 65536) (>= v4 0)) (and (and (< v3 65536) (>= v3 0)) (and (and (< v2 65536) (>= v2 0)) (and (and (< v1 65536) (>= v1 0)) (and (< v0 65536) (>= v0 0)))))))))))))))))))))))))))))))))))))))))))))))))))))))))))))))))))))))))))))))))))))))))))))))))))))))))))))))))))))))))))))))))))))))))))))))))))))))
(check-sat)
(exit)
